\ LP format - for model browsing. Use MPS format to capture full model detail.
Maximize
  45.625 z1 + 22.8125 z2 + 39.75 z3 + 12.5625 z4 + 25.125 z5 + 22.8125 z6
   + 18.1875 z7 + 10.25 z8 + 17.1875 z9 + 30.75 z10 + 13 z11 + 43.3125 z12
   + 20 z13 + 32 z14 + 41 z15 + 39 z16 + 35.375 z17 + 41 z18 + 48 z19
   + 40 z20
Subject To
 constraint1: 47 z1 + 24 z2 + 41 z3 + 14 z4 + 26 z5 + 23 z6 + 19 z7 + 11 z8
   + 18 z9 + 33 z10 + 13 z11 + 46 z12 + 20 z13 + 32 z14 + 41 z15 + 39 z16
   + 36 z17 + 41 z18 + 48 z19 + 40 z20 <= 200
 constraints2_3_&_11: z3 - z11 = 0
 constraints2_11_&_13: z11 - z13 = 0
 constraints2_13_&_16: z13 - z16 = 0
 constraints2_12_&_14: z12 - z14 = 0
 constraints2_14_&_15: z14 - z15 = 0
 constraints2_15_&_19: z15 - z19 = 0
 constraints3_3_|_18: z3 + z18 <= 1
 constraints3_3_|_20: z3 + z20 <= 1
 constraints3_5_|_12: z5 + z12 <= 1
 constraints3_5_|_14: z5 + z14 <= 1
 constraints3_5_|_19: z5 + z19 <= 1
 constraints3_12_|_20: z12 + z20 <= 1
 constraints3_14_|_20: z14 + z20 <= 1
 constraints3_16_|_18: z16 + z18 <= 1
 constraints3_19_|_20: z19 + z20 <= 1
Bounds
Binaries
 z1 z2 z3 z4 z5 z6 z7 z8 z9 z10 z11 z12 z13 z14 z15 z16 z17 z18 z19 z20
End
